7327
6508
2949
4715
4456
7143
2645
10020
8351
3170
3621
757
8645
6473
10106
4375
594
8137
6862
8529
7505
1358
4493
3936
1739
4572
8381
8186
658
5272
598
5652
9577
3559
6639
5677
4160
1837
1296
2429
7847
3189
9032
2860
9125
7407
8269
1121
9964
4889
